100 8
282 674
795 71
955 151
313 87
855 180
483 485
687 349
468 353
548 277
306 128
489 336
125 947
304 201
852 81
979 240
920 679
489 680
787 844
772 684
140 802
35 746
358 495
368 27
148 972
976 100
224 831
762 516
298 868
273 514
256 538
187 689
759 737
240 655
30 642
509 340
210 870
954 147
170 859
247 548
239 794
453 181
670 915
282 668
217 234
732 586
817 620
339 594
151 959
217 655
924 801
341 43
209 821
40 262
242 954
233 812
307 559
388 610
851 715
170 834
171 573
750 673
324 862
354 441
317 718
124 227
744 197
300 724
228 390
779 332
352 154
358 497
656 193
837 622
657 243
315 385
767 729
482 453
925 686
654 341
956 68
414 571
43 298
227 714
373 550
801 67
329 443
451 75
335 136
104 740
232 956
199 803
350 770
161 468
762 595
145 356
819 184
749 193
856 122
659 408
336 767
